BAYES
625
2 2 2 2 2 2 2 2 2 2 2 2 2 2 2 2 2 2 2 2 2 2 2 2 2 2 2 2 2 2 2 2 2 2 2 2 2 2 2 2 2 2 2 2 2 2 2 2 2 2 2 2 2 2 2 2 2 2 2 2 2 2 2 2 2 2 2 2 2 2 2 2 2 2 2 2 2 2 2 2 2 2 2 2 2 2 2 2 2 2 2 2 2 2 2 2 2 2 2 2 2 2 2 2 2 2 2 2 2 2 2 2 2 2 2 2 2 2 2 2 2 2 2 2 2 2 2 2 2 2 2 2 2 2 2 2 2 2 2 2 2 2 2 2 2 2 2 2 2 2 2 2 2 2 2 2 2 2 2 2 2 2 2 2 2 2 2 2 2 2 2 2 2 2 2 2 2 2 2 2 2 2 2 2 2 2 2 2 2 2 2 2 2 2 2 2 2 2 2 2 2 2 2 2 2 2 2 2 2 2 2 2 2 2 2 2 2 2 2 2 2 2 2 2 2 2 2 2 2 2 2 2 2 2 2 2 2 2 2 2 2 2 2 2 2 2 2 2 2 2 2 2 2 2 2 2 2 2 2 2 2 2 2 2 2 2 2 2 2 2 2 2 2 2 2 2 2 2 2 2 2 2 2 2 2 2 2 2 2 2 2 2 2 2 2 2 2 2 2 2 2 2 2 2 2 2 2 2 2 2 2 2 2 2 2 2 2 2 2 2 2 2 2 2 2 2 2 2 2 2 2 2 2 2 2 2 2 2 2 2 2 2 2 2 2 2 2 2 2 2 2 2 2 2 2 2 2 2 2 2 2 2 2 2 2 2 2 2 2 2 2 2 2 2 2 2 2 2 2 2 2 2 2 2 2 2 2 2 2 2 2 2 2 2 2 2 2 2 2 2 2 2 2 2 2 2 2 2 2 2 2 2 2 2 2 2 2 2 2 2 2 2 2 2 2 2 2 2 2 2 2 2 2 2 2 2 2 2 2 2 2 2 2 2 2 2 2 2 2 2 2 2 2 2 2 2 2 2 2 2 2 2 2 2 2 2 2 2 2 2 2 2 2 2 2 2 2 2 2 2 2 2 2 2 2 2 2 2 2 2 2 2 2 2 2 2 2 2 2 2 2 2 2 2 2 2 2 2 2 2 2 2 2 2 2 2 2 2 2 2 2 2 2 2 2 2 2 2 2 2 2 2 2 2 2 2 2 2 2 2 2 2 2 2 2 2 2 2 2 2 2 2 2 2 2 2 2 2 2 2 2 2 2 2 2 2 2 2 2 2 2 2 2 2 2 2 2 2 2 2 2 2 2 2 2 2 2 2 2 2 2 2 2 2 2 2 2 2 2 2 2 2 2 2 2 2 2 2 2 2 2 2 2 2 2 2 2 2 2 2 2 2 2 2 2
625
3 25 1 0
3 26 2 1
3 27 3 2
3 28 4 3
3 29 5 4
3 30 6 5
3 31 7 6
3 32 8 7
3 33 9 8
3 34 10 9
3 35 11 10
3 36 12 11
3 37 13 12
3 38 14 13
3 39 15 14
3 40 16 15
3 41 17 16
3 42 18 17
3 43 19 18
3 44 20 19
3 45 21 20
3 46 22 21
3 47 23 22
3 48 24 23
2 49 24
3 50 26 25
3 51 27 26
3 52 28 27
3 53 29 28
3 54 30 29
3 55 31 30
3 56 32 31
3 57 33 32
3 58 34 33
3 59 35 34
3 60 36 35
3 61 37 36
3 62 38 37
3 63 39 38
3 64 40 39
3 65 41 40
3 66 42 41
3 67 43 42
3 68 44 43
3 69 45 44
3 70 46 45
3 71 47 46
3 72 48 47
3 73 49 48
2 74 49
3 75 51 50
3 76 52 51
3 77 53 52
3 78 54 53
3 79 55 54
3 80 56 55
3 81 57 56
3 82 58 57
3 83 59 58
3 84 60 59
3 85 61 60
3 86 62 61
3 87 63 62
3 88 64 63
3 89 65 64
3 90 66 65
3 91 67 66
3 92 68 67
3 93 69 68
3 94 70 69
3 95 71 70
3 96 72 71
3 97 73 72
3 98 74 73
2 99 74
3 100 76 75
3 101 77 76
3 102 78 77
3 103 79 78
3 104 80 79
3 105 81 80
3 106 82 81
3 107 83 82
3 108 84 83
3 109 85 84
3 110 86 85
3 111 87 86
3 112 88 87
3 113 89 88
3 114 90 89
3 115 91 90
3 116 92 91
3 117 93 92
3 118 94 93
3 119 95 94
3 120 96 95
3 121 97 96
3 122 98 97
3 123 99 98
2 124 99
3 125 101 100
3 126 102 101
3 127 103 102
3 128 104 103
3 129 105 104
3 130 106 105
3 131 107 106
3 132 108 107
3 133 109 108
3 134 110 109
3 135 111 110
3 136 112 111
3 137 113 112
3 138 114 113
3 139 115 114
3 140 116 115
3 141 117 116
3 142 118 117
3 143 119 118
3 144 120 119
3 145 121 120
3 146 122 121
3 147 123 122
3 148 124 123
2 149 124
3 150 126 125
3 151 127 126
3 152 128 127
3 153 129 128
3 154 130 129
3 155 131 130
3 156 132 131
3 157 133 132
3 158 134 133
3 159 135 134
3 160 136 135
3 161 137 136
3 162 138 137
3 163 139 138
3 164 140 139
3 165 141 140
3 166 142 141
3 167 143 142
3 168 144 143
3 169 145 144
3 170 146 145
3 171 147 146
3 172 148 147
3 173 149 148
2 174 149
3 175 151 150
3 176 152 151
3 177 153 152
3 178 154 153
3 179 155 154
3 180 156 155
3 181 157 156
3 182 158 157
3 183 159 158
3 184 160 159
3 185 161 160
3 186 162 161
3 187 163 162
3 188 164 163
3 189 165 164
3 190 166 165
3 191 167 166
3 192 168 167
3 193 169 168
3 194 170 169
3 195 171 170
3 196 172 171
3 197 173 172
3 198 174 173
2 199 174
3 200 176 175
3 201 177 176
3 202 178 177
3 203 179 178
3 204 180 179
3 205 181 180
3 206 182 181
3 207 183 182
3 208 184 183
3 209 185 184
3 210 186 185
3 211 187 186
3 212 188 187
3 213 189 188
3 214 190 189
3 215 191 190
3 216 192 191
3 217 193 192
3 218 194 193
3 219 195 194
3 220 196 195
3 221 197 196
3 222 198 197
3 223 199 198
2 224 199
3 225 201 200
3 226 202 201
3 227 203 202
3 228 204 203
3 229 205 204
3 230 206 205
3 231 207 206
3 232 208 207
3 233 209 208
3 234 210 209
3 235 211 210
3 236 212 211
3 237 213 212
3 238 214 213
3 239 215 214
3 240 216 215
3 241 217 216
3 242 218 217
3 243 219 218
3 244 220 219
3 245 221 220
3 246 222 221
3 247 223 222
3 248 224 223
2 249 224
3 250 226 225
3 251 227 226
3 252 228 227
3 253 229 228
3 254 230 229
3 255 231 230
3 256 232 231
3 257 233 232
3 258 234 233
3 259 235 234
3 260 236 235
3 261 237 236
3 262 238 237
3 263 239 238
3 264 240 239
3 265 241 240
3 266 242 241
3 267 243 242
3 268 244 243
3 269 245 244
3 270 246 245
3 271 247 246
3 272 248 247
3 273 249 248
2 274 249
3 275 251 250
3 276 252 251
3 277 253 252
3 278 254 253
3 279 255 254
3 280 256 255
3 281 257 256
3 282 258 257
3 283 259 258
3 284 260 259
3 285 261 260
3 286 262 261
3 287 263 262
3 288 264 263
3 289 265 264
3 290 266 265
3 291 267 266
3 292 268 267
3 293 269 268
3 294 270 269
3 295 271 270
3 296 272 271
3 297 273 272
3 298 274 273
2 299 274
3 300 276 275
3 301 277 276
3 302 278 277
3 303 279 278
3 304 280 279
3 305 281 280
3 306 282 281
3 307 283 282
3 308 284 283
3 309 285 284
3 310 286 285
3 311 287 286
3 312 288 287
3 313 289 288
3 314 290 289
3 315 291 290
3 316 292 291
3 317 293 292
3 318 294 293
3 319 295 294
3 320 296 295
3 321 297 296
3 322 298 297
3 323 299 298
2 324 299
3 325 301 300
3 326 302 301
3 327 303 302
3 328 304 303
3 329 305 304
3 330 306 305
3 331 307 306
3 332 308 307
3 333 309 308
3 334 310 309
3 335 311 310
3 336 312 311
3 337 313 312
3 338 314 313
3 339 315 314
3 340 316 315
3 341 317 316
3 342 318 317
3 343 319 318
3 344 320 319
3 345 321 320
3 346 322 321
3 347 323 322
3 348 324 323
2 349 324
3 350 326 325
3 351 327 326
3 352 328 327
3 353 329 328
3 354 330 329
3 355 331 330
3 356 332 331
3 357 333 332
3 358 334 333
3 359 335 334
3 360 336 335
3 361 337 336
3 362 338 337
3 363 339 338
3 364 340 339
3 365 341 340
3 366 342 341
3 367 343 342
3 368 344 343
3 369 345 344
3 370 346 345
3 371 347 346
3 372 348 347
3 373 349 348
2 374 349
3 375 351 350
3 376 352 351
3 377 353 352
3 378 354 353
3 379 355 354
3 380 356 355
3 381 357 356
3 382 358 357
3 383 359 358
3 384 360 359
3 385 361 360
3 386 362 361
3 387 363 362
3 388 364 363
3 389 365 364
3 390 366 365
3 391 367 366
3 392 368 367
3 393 369 368
3 394 370 369
3 395 371 370
3 396 372 371
3 397 373 372
3 398 374 373
2 399 374
3 400 376 375
3 401 377 376
3 402 378 377
3 403 379 378
3 404 380 379
3 405 381 380
3 406 382 381
3 407 383 382
3 408 384 383
3 409 385 384
3 410 386 385
3 411 387 386
3 412 388 387
3 413 389 388
3 414 390 389
3 415 391 390
3 416 392 391
3 417 393 392
3 418 394 393
3 419 395 394
3 420 396 395
3 421 397 396
3 422 398 397
3 423 399 398
2 424 399
3 425 401 400
3 426 402 401
3 427 403 402
3 428 404 403
3 429 405 404
3 430 406 405
3 431 407 406
3 432 408 407
3 433 409 408
3 434 410 409
3 435 411 410
3 436 412 411
3 437 413 412
3 438 414 413
3 439 415 414
3 440 416 415
3 441 417 416
3 442 418 417
3 443 419 418
3 444 420 419
3 445 421 420
3 446 422 421
3 447 423 422
3 448 424 423
2 449 424
3 450 426 425
3 451 427 426
3 452 428 427
3 453 429 428
3 454 430 429
3 455 431 430
3 456 432 431
3 457 433 432
3 458 434 433
3 459 435 434
3 460 436 435
3 461 437 436
3 462 438 437
3 463 439 438
3 464 440 439
3 465 441 440
3 466 442 441
3 467 443 442
3 468 444 443
3 469 445 444
3 470 446 445
3 471 447 446
3 472 448 447
3 473 449 448
2 474 449
3 475 451 450
3 476 452 451
3 477 453 452
3 478 454 453
3 479 455 454
3 480 456 455
3 481 457 456
3 482 458 457
3 483 459 458
3 484 460 459
3 485 461 460
3 486 462 461
3 487 463 462
3 488 464 463
3 489 465 464
3 490 466 465
3 491 467 466
3 492 468 467
3 493 469 468
3 494 470 469
3 495 471 470
3 496 472 471
3 497 473 472
3 498 474 473
2 499 474
3 500 476 475
3 501 477 476
3 502 478 477
3 503 479 478
3 504 480 479
3 505 481 480
3 506 482 481
3 507 483 482
3 508 484 483
3 509 485 484
3 510 486 485
3 511 487 486
3 512 488 487
3 513 489 488
3 514 490 489
3 515 491 490
3 516 492 491
3 517 493 492
3 518 494 493
3 519 495 494
3 520 496 495
3 521 497 496
3 522 498 497
3 523 499 498
2 524 499
3 525 501 500
3 526 502 501
3 527 503 502
3 528 504 503
3 529 505 504
3 530 506 505
3 531 507 506
3 532 508 507
3 533 509 508
3 534 510 509
3 535 511 510
3 536 512 511
3 537 513 512
3 538 514 513
3 539 515 514
3 540 516 515
3 541 517 516
3 542 518 517
3 543 519 518
3 544 520 519
3 545 521 520
3 546 522 521
3 547 523 522
3 548 524 523
2 549 524
3 550 526 525
3 551 527 526
3 552 528 527
3 553 529 528
3 554 530 529
3 555 531 530
3 556 532 531
3 557 533 532
3 558 534 533
3 559 535 534
3 560 536 535
3 561 537 536
3 562 538 537
3 563 539 538
3 564 540 539
3 565 541 540
3 566 542 541
3 567 543 542
3 568 544 543
3 569 545 544
3 570 546 545
3 571 547 546
3 572 548 547
3 573 549 548
2 574 549
3 575 551 550
3 576 552 551
3 577 553 552
3 578 554 553
3 579 555 554
3 580 556 555
3 581 557 556
3 582 558 557
3 583 559 558
3 584 560 559
3 585 561 560
3 586 562 561
3 587 563 562
3 588 564 563
3 589 565 564
3 590 566 565
3 591 567 566
3 592 568 567
3 593 569 568
3 594 570 569
3 595 571 570
3 596 572 571
3 597 573 572
3 598 574 573
2 599 574
3 600 576 575
3 601 577 576
3 602 578 577
3 603 579 578
3 604 580 579
3 605 581 580
3 606 582 581
3 607 583 582
3 608 584 583
3 609 585 584
3 610 586 585
3 611 587 586
3 612 588 587
3 613 589 588
3 614 590 589
3 615 591 590
3 616 592 591
3 617 593 592
3 618 594 593
3 619 595 594
3 620 596 595
3 621 597 596
3 622 598 597
3 623 599 598
2 624 599
2 601 600
2 602 601
2 603 602
2 604 603
2 605 604
2 606 605
2 607 606
2 608 607
2 609 608
2 610 609
2 611 610
2 612 611
2 613 612
2 614 613
2 615 614
2 616 615
2 617 616
2 618 617
2 619 618
2 620 619
2 621 620
2 622 621
2 623 622
2 624 623
1  624
8
0 1 1 0 1 0 1 0
8
1 0 1 0 0 1 1 0
8
0 1 1 0 1 0 1 0
8
0 1 1 0 1 0 0 1
8
1 0 0 1 1 0 0 1
8
1 0 1 0 0 1 1 0
8
1 0 0 1 1 0 0 1
8
0 1 0 1 0 1 1 0
8
0 1 0 1 0 1 0 1
8
1 0 0 1 0 1 1 0
8
1 0 1 0 0 1 1 0
8
1 0 1 0 1 0 0 1
8
1 0 0 1 1 0 1 0
8
1 0 1 0 1 0 1 0
8
0.7555682274422 0.24443177255780002 0.11269535033867625 0.8873046496613237 0.06908903663933243 0.9309109633606676 0.5202368955321861 0.47976310446781395
8
1 0 0 1 1 0 0 1
8
1 0 1 0 0 1 1 0
8
0 1 0 1 0 1 1 0
8
0 1 0 1 1 0 1 0
8
0 1 0 1 1 0 1 0
8
0 1 1 0 0 1 0 1
8
1 0 0 1 1 0 1 0
8
0 1 0 1 0 1 1 0
8
1 0 0 1 1 0 0 1
4
1 0 0 1
8
1 0 1 0 1 0 0 1
8
1 0 1 0 1 0 0 1
8
0 1 0 1 1 0 1 0
8
1 0 0 1 1 0 1 0
8
1 0 1 0 1 0 1 0
8
0 1 0 1 0 1 1 0
8
0 1 0 1 0 1 0 1
8
0.7471807984100677 0.2528192015899323 0.22290790906404176 0.7770920909359582 0.6670883257407009 0.3329116742592992 0.5435611600743353 0.45643883992566475
8
0 1 1 0 0 1 0 1
8
1 0 0 1 1 0 1 0
8
0 1 1 0 0 1 0 1
8
0 1 0 1 0 1 1 0
8
1 0 0 1 0 1 0 1
8
0 1 0 1 0 1 1 0
8
0.3555380771278191 0.6444619228721808 0.2978411066960389 0.7021588933039611 0.3303324092550626 0.6696675907449375 0.44175006543445805 0.558249934565542
8
0 1 1 0 0 1 1 0
8
0 1 0 1 0 1 0 1
8
1 0 1 0 1 0 0 1
8
0 1 1 0 0 1 0 1
8
1 0 0 1 1 0 0 1
8
0 1 0 1 0 1 0 1
8
1 0 1 0 0 1 0 1
8
0.47168436338479447 0.5283156366152054 0.26651332639202313 0.7334866736079769 0.4691770943345711 0.5308229056654289 0.18024608394326538 0.8197539160567346
8
0.565173938825483 0.434826061174517 0.934754149187816 0.06524585081218406 0.866957254698738 0.13304274530126203 0.5426284055234954 0.4573715944765046
4
0 1 0 1
8
1 0 0 1 1 0 0 1
8
1 0 1 0 0 1 0 1
8
0 1 1 0 1 0 1 0
8
0 1 1 0 0 1 0 1
8
1 0 1 0 1 0 0 1
8
1 0 0 1 1 0 0 1
8
1 0 1 0 1 0 1 0
8
1 0 1 0 1 0 0 1
8
0.8150816735696248 0.18491832643037523 0.7877629213256446 0.21223707867435537 0.4692676479444786 0.5307323520555214 0.7169620045380009 0.2830379954619991
8
1 0 1 0 1 0 1 0
8
0.7613635173652717 0.23863648263472823 0.4200495969618351 0.5799504030381648 0.42798982192965224 0.5720101780703478 0.34052595559633225 0.6594740444036679
8
1 0 0 1 0 1 1 0
8
1 0 0 1 1 0 1 0
8
1 0 1 0 1 0 0 1
8
1 0 0 1 1 0 1 0
8
1 0 1 0 0 1 0 1
8
1 0 0 1 1 0 0 1
8
0 1 1 0 0 1 1 0
8
0 1 1 0 1 0 1 0
8
0 1 1 0 0 1 1 0
8
1 0 0 1 1 0 0 1
8
0 1 1 0 1 0 1 0
8
1 0 0 1 0 1 1 0
8
1 0 1 0 1 0 0 1
4
0 1 0 1
8
1 0 0 1 1 0 0 1
8
1 0 1 0 1 0 0 1
8
0 1 0 1 1 0 0 1
8
0 1 1 0 0 1 0 1
8
0 1 1 0 1 0 1 0
8
1 0 0 1 1 0 0 1
8
0 1 1 0 0 1 1 0
8
0 1 1 0 0 1 0 1
8
0 1 0 1 1 0 0 1
8
1 0 1 0 1 0 0 1
8
1 0 0 1 0 1 1 0
8
1 0 0 1 1 0 0 1
8
0 1 1 0 1 0 1 0
8
1 0 0 1 1 0 0 1
8
1 0 1 0 0 1 1 0
8
0.504067594562161 0.49593240543783895 0.07925581386672402 0.920744186133276 0.5507905416035013 0.44920945839649873 0.5300228406543871 0.46997715934561296
8
0 1 0 1 1 0 0 1
8
0 1 0 1 0 1 1 0
8
0 1 0 1 0 1 0 1
8
1 0 1 0 1 0 1 0
8
1 0 0 1 0 1 1 0
8
1 0 0 1 1 0 0 1
8
1 0 0 1 1 0 0 1
8
1 0 1 0 1 0 0 1
4
0 1 1 0
8
0 1 1 0 1 0 0 1
8
1 0 1 0 0 1 0 1
8
0.9896424090032334 0.010357590996766605 0.453880851718487 0.546119148281513 0.2219475755977245 0.7780524244022755 0.5706571840335831 0.42934281596641694
8
0 1 1 0 0 1 1 0
8
1 0 1 0 0 1 1 0
8
1 0 0 1 0 1 0 1
8
0 1 0 1 1 0 0 1
8
0 1 1 0 1 0 0 1
8
0 1 0 1 1 0 1 0
8
0 1 1 0 0 1 0 1
8
1 0 1 0 0 1 1 0
8
0 1 0 1 0 1 0 1
8
0 1 0 1 1 0 1 0
8
0 1 0 1 0 1 0 1
8
0 1 1 0 0 1 1 0
8
0 1 1 0 1 0 0 1
8
0 1 0 1 1 0 0 1
8
1 0 0 1 0 1 0 1
8
1 0 0 1 1 0 1 0
8
0 1 0 1 0 1 1 0
8
0 1 1 0 0 1 0 1
8
0 1 0 1 0 1 1 0
8
1 0 0 1 1 0 1 0
8
1 0 1 0 0 1 0 1
4
1 0 0 1
8
0 1 1 0 0 1 1 0
8
0 1 1 0 0 1 1 0
8
1 0 1 0 1 0 1 0
8
0 1 0 1 0 1 1 0
8
1 0 1 0 1 0 0 1
8
1 0 1 0 1 0 0 1
8
0 1 1 0 0 1 0 1
8
0 1 0 1 1 0 0 1
8
0 1 1 0 1 0 0 1
8
0 1 0 1 1 0 0 1
8
0.46069311054452966 0.5393068894554703 0.17537513077832595 0.8246248692216741 0.9806473100567266 0.019352689943273473 0.6335063115478577 0.36649368845214214
8
1 0 0 1 0 1 1 0
8
0.3841745964467216 0.6158254035532784 0.14781449447333314 0.8521855055266668 0.3492782957933773 0.6507217042066227 0.14154471134341706 0.8584552886565829
8
1 0 1 0 0 1 1 0
8
0 1 1 0 1 0 0 1
8
0 1 0 1 1 0 1 0
8
0 1 0 1 0 1 1 0
8
0 1 0 1 0 1 1 0
8
0.534632820089753 0.46536717991024695 0.08604139548053208 0.9139586045194679 0.010219860041359104 0.9897801399586409 0.47539623604133036 0.5246037639586697
8
1 0 0 1 0 1 1 0
8
0.7982403001636037 0.2017596998363963 0.4854004757681884 0.5145995242318117 0.3382638358009452 0.6617361641990548 0.5569109657162538 0.44308903428374635
8
0 1 1 0 1 0 0 1
8
0.8007416647549507 0.19925833524504938 0.5676055489356088 0.43239445106439117 0.9940733251992941 0.005926674800705825 0.6310780260238976 0.3689219739761024
8
1 0 1 0 0 1 1 0
4
0 1 1 0
8
0.4953251829983726 0.5046748170016274 0.3158314966633634 0.6841685033366366 0.3486412392580563 0.6513587607419435 0.9853426278180346 0.014657372181965403
8
0.5635123710205393 0.43648762897946064 0.596935395407587 0.403064604592413 0.27289275525416556 0.7271072447458344 0.0709848732473328 0.9290151267526672
8
1 0 0 1 0 1 0 1
8
1 0 0 1 0 1 0 1
8
1 0 1 0 1 0 0 1
8
1 0 1 0 0 1 0 1
8
0 1 1 0 0 1 0 1
8
0.8213709181610435 0.17862908183895654 0.5695957175811671 0.4304042824188329 0.15858331320943658 0.8414166867905635 0.3360006850274299 0.66399931497257
8
1 0 0 1 0 1 1 0
8
0.5689482294325258 0.43105177056747424 0.26867445422909364 0.7313255457709064 0.33623819759688905 0.663761802403111 0.5268172681160771 0.4731827318839229
8
1 0 1 0 0 1 1 0
8
0 1 1 0 0 1 0 1
8
1 0 0 1 0 1 0 1
8
0 1 1 0 1 0 0 1
8
0 1 0 1 1 0 0 1
8
0 1 0 1 1 0 1 0
8
0 1 0 1 1 0 1 0
8
0 1 0 1 0 1 0 1
8
1 0 1 0 0 1 0 1
8
0 1 0 1 0 1 1 0
8
1 0 0 1 0 1 1 0
8
1 0 1 0 0 1 0 1
8
1 0 1 0 0 1 1 0
8
0 1 1 0 0 1 0 1
4
1 0 0 1
8
1 0 0 1 1 0 0 1
8
1 0 1 0 0 1 1 0
8
0 1 1 0 1 0 1 0
8
1 0 1 0 1 0 0 1
8
1 0 1 0 1 0 1 0
8
0 1 1 0 1 0 0 1
8
0 1 0 1 0 1 1 0
8
1 0 0 1 1 0 0 1
8
0 1 0 1 0 1 1 0
8
0 1 0 1 0 1 1 0
8
0.42131387806317355 0.5786861219368264 0.7375346895426017 0.26246531045739835 0.41832057851204135 0.5816794214879586 0.23915321943265241 0.7608467805673476
8
0 1 1 0 0 1 0 1
8
1 0 1 0 0 1 1 0
8
0 1 0 1 1 0 0 1
8
0 1 0 1 0 1 0 1
8
0 1 1 0 1 0 0 1
8
1 0 1 0 1 0 0 1
8
1 0 1 0 1 0 1 0
8
0 1 1 0 1 0 1 0
8
0 1 1 0 1 0 0 1
8
0 1 0 1 0 1 1 0
8
0.39693696742302303 0.603063032576977 0.6254619252384275 0.3745380747615725 0.08200190840793181 0.9179980915920682 0.157953647324608 0.8420463526753921
8
1 0 0 1 1 0 0 1
8
0 1 1 0 1 0 0 1
4
0.2630396561203536 0.7369603438796464 0.9493700384584172 0.0506299615415828
8
0 1 0 1 1 0 1 0
8
0.5452599875289443 0.4547400124710557 0.55619335493711 0.44380664506289014 0.05610847200503925 0.9438915279949608 0.1785815927493377 0.8214184072506623
8
0 1 0 1 0 1 0 1
8
1 0 0 1 0 1 1 0
8
1 0 0 1 0 1 1 0
8
0 1 0 1 1 0 0 1
8
0 1 1 0 0 1 1 0
8
1 0 1 0 0 1 1 0
8
0 1 0 1 1 0 0 1
8
1 0 0 1 0 1 1 0
8
0 1 0 1 1 0 0 1
8
0.3766394124602413 0.6233605875397586 0.9298813313837258 0.07011866861627421 0.5926306308376813 0.40736936916231875 0.21336514269832418 0.7866348573016758
8
1 0 1 0 1 0 1 0
8
1 0 1 0 0 1 1 0
8
0 1 1 0 1 0 1 0
8
0 1 1 0 0 1 1 0
8
1 0 0 1 0 1 0 1
8
0 1 0 1 0 1 1 0
8
1 0 1 0 1 0 1 0
8
1 0 1 0 1 0 0 1
8
1 0 0 1 1 0 0 1
8
0 1 1 0 1 0 1 0
8
0 1 1 0 1 0 1 0
8
1 0 0 1 1 0 1 0
4
0 1 1 0
8
1 0 0 1 1 0 1 0
8
0 1 1 0 1 0 0 1
8
1 0 0 1 1 0 1 0
8
1 0 1 0 1 0 0 1
8
0 1 0 1 0 1 0 1
8
0 1 1 0 1 0 0 1
8
0 1 1 0 1 0 1 0
8
0 1 1 0 0 1 1 0
8
1 0 1 0 1 0 0 1
8
0 1 1 0 1 0 1 0
8
0 1 1 0 1 0 1 0
8
0 1 0 1 0 1 1 0
8
0 1 0 1 0 1 0 1
8
0 1 1 0 1 0 0 1
8
1 0 1 0 1 0 1 0
8
0 1 1 0 1 0 0 1
8
1 0 0 1 0 1 0 1
8
0 1 1 0 1 0 0 1
8
0 1 1 0 0 1 1 0
8
1 0 0 1 0 1 0 1
8
0 1 0 1 1 0 1 0
8
1 0 0 1 1 0 0 1
8
1 0 1 0 1 0 0 1
8
0 1 0 1 1 0 0 1
4
0 1 1 0
8
0.9462292438618374 0.05377075613816268 0.7694343058934511 0.2305656941065489 0.3141931278201082 0.6858068721798918 0.5978906832586035 0.4021093167413965
8
1 0 0 1 1 0 1 0
8
0 1 0 1 1 0 0 1
8
0 1 1 0 1 0 1 0
8
0 1 1 0 1 0 0 1
8
1 0 0 1 1 0 1 0
8
1 0 0 1 0 1 0 1
8
0 1 1 0 0 1 0 1
8
1 0 0 1 1 0 0 1
8
1 0 0 1 0 1 1 0
8
1 0 0 1 0 1 0 1
8
1 0 1 0 1 0 1 0
8
1 0 0 1 1 0 0 1
8
1 0 1 0 0 1 0 1
8
0 1 0 1 1 0 0 1
8
0 1 1 0 0 1 1 0
8
0 1 0 1 0 1 1 0
8
1 0 0 1 1 0 0 1
8
0 1 1 0 0 1 1 0
8
0 1 0 1 1 0 1 0
8
0 1 0 1 0 1 0 1
8
0 1 1 0 0 1 1 0
8
0 1 0 1 1 0 0 1
8
1 0 0 1 1 0 1 0
4
1 0 0 1
8
1 0 0 1 0 1 0 1
8
0.598701964953884 0.40129803504611605 0.5640386852142432 0.43596131478575684 0.6914592296317028 0.30854077036829713 0.13085986413237835 0.8691401358676216
8
0 1 1 0 1 0 1 0
8
0 1 0 1 1 0 0 1
8
1 0 1 0 1 0 1 0
8
1 0 1 0 0 1 1 0
8
0 1 1 0 0 1 1 0
8
1 0 0 1 1 0 1 0
8
1 0 0 1 0 1 0 1
8
0 1 0 1 0 1 0 1
8
0.8286834162730161 0.17131658372698388 0.21788167098694772 0.7821183290130523 0.5110053021935392 0.48899469780646077 0.34293146369750754 0.6570685363024924
8
1 0 1 0 0 1 0 1
8
0 1 1 0 1 0 1 0
8
1 0 1 0 1 0 1 0
8
0 1 0 1 1 0 1 0
8
1 0 1 0 0 1 0 1
8
0 1 0 1 0 1 1 0
8
0 1 0 1 0 1 0 1
8
0 1 0 1 0 1 0 1
8
0 1 0 1 1 0 1 0
8
0 1 1 0 0 1 0 1
8
0 1 0 1 1 0 1 0
8
0 1 0 1 1 0 0 1
8
1 0 0 1 1 0 1 0
4
1 0 0 1
8
0.5759590091065483 0.42404099089345176 0.4787050270251265 0.5212949729748736 0.18599638331082688 0.8140036166891731 0.7305358546058465 0.26946414539415353
8
0 1 1 0 1 0 1 0
8
0 1 0 1 1 0 1 0
8
0 1 0 1 1 0 1 0
8
1 0 1 0 0 1 0 1
8
0 1 1 0 0 1 0 1
8
1 0 1 0 1 0 1 0
8
1 0 0 1 1 0 1 0
8
1 0 0 1 1 0 1 0
8
0.45251640398847354 0.5474835960115264 0.43454072903404245 0.5654592709659576 0.6827391233617317 0.3172608766382683 0.48500759343653027 0.5149924065634697
8
0 1 1 0 0 1 0 1
8
1 0 1 0 1 0 0 1
8
1 0 0 1 1 0 1 0
8
1 0 1 0 1 0 0 1
8
1 0 0 1 0 1 1 0
8
0 1 0 1 0 1 0 1
8
1 0 0 1 0 1 0 1
8
1 0 1 0 1 0 1 0
8
0 1 0 1 1 0 1 0
8
0 1 0 1 1 0 1 0
8
0 1 0 1 0 1 1 0
8
0 1 0 1 0 1 0 1
8
1 0 0 1 1 0 1 0
8
0 1 0 1 1 0 1 0
4
1 0 1 0
8
0.4655068813005548 0.5344931186994453 0.6261603928796551 0.3738396071203448 0.06614627209888249 0.9338537279011176 0.33570317512812153 0.6642968248718785
8
1 0 1 0 1 0 1 0
8
1 0 1 0 1 0 0 1
8
0 1 0 1 0 1 1 0
8
0 1 1 0 0 1 1 0
8
1 0 1 0 1 0 1 0
8
0 1 0 1 0 1 0 1
8
0 1 1 0 0 1 0 1
8
0 1 0 1 1 0 1 0
8
1 0 1 0 1 0 0 1
8
1 0 1 0 1 0 0 1
8
1 0 0 1 1 0 0 1
8
1 0 1 0 0 1 1 0
8
0.7664795510040453 0.23352044899595475 0.41464603107956655 0.5853539689204335 0.6159569032963865 0.3840430967036135 0.8005018139428587 0.19949818605714117
8
0.4649103991302513 0.5350896008697488 0.3818359359068254 0.6181640640931746 0.2732665297746171 0.7267334702253829 0.2839268861684915 0.7160731138315085
8
1 0 1 0 1 0 1 0
8
1 0 1 0 0 1 0 1
8
1 0 0 1 0 1 0 1
8
0 1 0 1 0 1 1 0
8
1 0 1 0 0 1 0 1
8
1 0 0 1 1 0 1 0
8
1 0 1 0 0 1 0 1
8
0 1 0 1 1 0 0 1
8
0 1 1 0 1 0 1 0
4
1 0 0 1
8
1 0 1 0 1 0 0 1
8
0 1 0 1 0 1 0 1
8
0 1 0 1 1 0 1 0
8
0 1 1 0 0 1 1 0
8
1 0 0 1 0 1 0 1
8
0 1 0 1 1 0 1 0
8
1 0 0 1 1 0 1 0
8
0 1 1 0 0 1 0 1
8
0 1 0 1 0 1 0 1
8
0 1 1 0 0 1 1 0
8
1 0 0 1 1 0 0 1
8
0 1 0 1 0 1 1 0
8
0 1 0 1 0 1 1 0
8
1 0 0 1 0 1 1 0
8
1 0 0 1 1 0 1 0
8
0.3638178321370637 0.6361821678629364 0.8693203791270698 0.13067962087293014 0.2633734296184709 0.7366265703815291 0.2530582665614679 0.7469417334385321
8
0.5297676225279602 0.47023237747203983 0.5426435624995505 0.45735643750044963 0.7067485669976038 0.29325143300239626 0.4801159066447132 0.5198840933552868
8
0.5165553701467137 0.48344462985328623 0.6346837720202122 0.36531622797978786 0.8397026134311109 0.16029738656888917 0.06246532942803691 0.937534670571963
8
1 0 0 1 0 1 1 0
8
1 0 0 1 1 0 0 1
8
1 0 1 0 1 0 0 1
8
0 1 0 1 0 1 0 1
8
0 1 1 0 1 0 0 1
8
0 1 1 0 1 0 1 0
4
0 1 1 0
8
1 0 0 1 1 0 0 1
8
0.23241461760532395 0.7675853823946761 0.10489111437030188 0.8951088856296981 0.5546677031992474 0.4453322968007525 0.4198973586260686 0.5801026413739313
8
0 1 1 0 1 0 1 0
8
0 1 1 0 0 1 1 0
8
1 0 1 0 0 1 0 1
8
1 0 0 1 0 1 0 1
8
1 0 1 0 0 1 0 1
8
0 1 0 1 0 1 0 1
8
1 0 1 0 0 1 1 0
8
1 0 0 1 1 0 1 0
8
0 1 0 1 1 0 0 1
8
1 0 0 1 0 1 0 1
8
1 0 0 1 1 0 1 0
8
0.38331999908620584 0.616680000913794 0.2851047693388573 0.7148952306611427 0.1300618007136184 0.8699381992863816 0.4083344724253664 0.5916655275746335
8
1 0 1 0 0 1 0 1
8
0.30888509270925646 0.6911149072907435 0.5759188915035295 0.42408110849647046 0.508885665925958 0.49111433407404204 0.44031706064623677 0.5596829393537632
8
1 0 1 0 1 0 1 0
8
0 1 0 1 0 1 1 0
8
1 0 1 0 1 0 1 0
8
0 1 1 0 0 1 1 0
8
0.10876747482404305 0.891232525175957 0.4485275792613282 0.5514724207386719 0.6282575762463114 0.3717424237536886 0.7750515568098418 0.2249484431901582
8
0.802243747762469 0.19775625223753104 0.8425692745432223 0.15743072545677783 0.5109565592078755 0.48904344079212453 0.4371345100662672 0.5628654899337328
8
1 0 1 0 0 1 1 0
8
0 1 0 1 1 0 1 0
4
1 0 1 0
8
1 0 0 1 0 1 0 1
8
1 0 0 1 0 1 1 0
8
0 1 1 0 0 1 1 0
8
0 1 0 1 1 0 0 1
8
1 0 1 0 0 1 0 1
8
1 0 1 0 0 1 0 1
8
1 0 1 0 0 1 0 1
8
0 1 0 1 1 0 0 1
8
1 0 0 1 0 1 0 1
8
0 1 0 1 1 0 1 0
8
0 1 1 0 1 0 0 1
8
0 1 0 1 0 1 1 0
8
0 1 1 0 1 0 0 1
8
1 0 0 1 1 0 0 1
8
1 0 1 0 1 0 0 1
8
0.8044362368864535 0.1955637631135465 0.20771333532748693 0.792286664672513 0.3836720456012711 0.6163279543987289 0.4183981330014374 0.5816018669985626
8
1 0 1 0 0 1 1 0
8
0.5698922093235633 0.43010779067643673 0.9977342060920369 0.0022657939079631048 0.3601909707911898 0.6398090292088103 0.8031235943465038 0.19687640565349612
8
1 0 0 1 0 1 0 1
8
0 1 0 1 1 0 1 0
8
0 1 0 1 1 0 0 1
8
1 0 1 0 1 0 0 1
8
1 0 1 0 1 0 0 1
8
1 0 1 0 1 0 1 0
4
0 1 1 0
8
1 0 1 0 0 1 1 0
8
1 0 0 1 1 0 0 1
8
1 0 0 1 0 1 1 0
8
0 1 0 1 1 0 1 0
8
0 1 1 0 1 0 0 1
8
1 0 0 1 0 1 0 1
8
0.3219336742280937 0.6780663257719064 0.3220086876417119 0.6779913123582881 0.1991162221698356 0.8008837778301644 0.39365439682350767 0.6063456031764924
8
1 0 0 1 1 0 0 1
8
1 0 0 1 0 1 1 0
8
0 1 1 0 1 0 1 0
8
0 1 0 1 0 1 0 1
8
1 0 1 0 0 1 0 1
8
1 0 1 0 1 0 1 0
8
0 1 0 1 1 0 1 0
8
0 1 1 0 1 0 1 0
8
1 0 0 1 0 1 1 0
8
0 1 0 1 1 0 1 0
8
1 0 0 1 0 1 1 0
8
1 0 1 0 1 0 1 0
8
0 1 0 1 0 1 1 0
8
1 0 1 0 0 1 0 1
8
0.3993279209877822 0.6006720790122178 0.7249593665698629 0.2750406334301371 0.42028748652397113 0.5797125134760289 0.6629468100400968 0.3370531899599032
8
0.5611725481557479 0.4388274518442522 0.46984178298395995 0.5301582170160402 0.15850878406491775 0.8414912159350822 0.713600318228744 0.286399681771256
8
0 1 1 0 0 1 0 1
4
1 0 0 1
8
1 0 0 1 1 0 0 1
8
1 0 0 1 1 0 0 1
8
1 0 0 1 1 0 1 0
8
0.5841174200239876 0.41588257997601236 0.8451815643525045 0.1548184356474955 0.24560997703953275 0.7543900229604673 0.3178595140180585 0.6821404859819414
8
0 1 0 1 1 0 1 0
8
1 0 0 1 0 1 0 1
8
1 0 1 0 1 0 0 1
8
1 0 0 1 1 0 1 0
8
1 0 1 0 1 0 1 0
8
1 0 0 1 0 1 0 1
8
0 1 0 1 0 1 0 1
8
0 1 1 0 0 1 0 1
8
0 1 1 0 0 1 1 0
8
1 0 0 1 0 1 1 0
8
0 1 0 1 1 0 0 1
8
1 0 1 0 0 1 0 1
8
1 0 0 1 1 0 0 1
8
0 1 0 1 1 0 1 0
8
0 1 1 0 0 1 1 0
8
1 0 0 1 0 1 1 0
8
1 0 0 1 1 0 0 1
8
0 1 0 1 1 0 0 1
8
1 0 0 1 0 1 0 1
8
0 1 0 1 0 1 1 0
4
0 1 1 0
8
1 0 0 1 1 0 0 1
8
1 0 0 1 0 1 0 1
8
1 0 0 1 1 0 0 1
8
1 0 1 0 1 0 0 1
8
0.5688980209486806 0.4311019790513195 0.3898653167925663 0.6101346832074337 0.12367979943990277 0.8763202005600972 0.13876428656419298 0.8612357134358071
8
1 0 0 1 0 1 0 1
8
0 1 0 1 0 1 1 0
8
1 0 0 1 0 1 0 1
8
1 0 1 0 1 0 0 1
8
0 1 1 0 1 0 0 1
8
1 0 0 1 0 1 0 1
8
0 1 1 0 0 1 1 0
8
1 0 1 0 0 1 0 1
8
0 1 0 1 0 1 1 0
8
1 0 0 1 0 1 1 0
8
0 1 1 0 0 1 1 0
8
0 1 1 0 1 0 1 0
8
0 1 0 1 0 1 1 0
8
1 0 0 1 0 1 0 1
8
0 1 0 1 1 0 1 0
8
0 1 1 0 1 0 1 0
8
0.32607962750736225 0.6739203724926378 0.323446506810976 0.6765534931890239 0.5129287914718236 0.4870712085281765 0.5146260462542994 0.48537395374570064
8
0 1 0 1 0 1 1 0
8
1 0 0 1 0 1 0 1
4
0 1 0 1
8
1 0 1 0 0 1 1 0
8
0 1 1 0 1 0 0 1
8
0.204493608810247 0.795506391189753 0.6590821974472458 0.34091780255275417 0.5156069221547174 0.4843930778452825 0.1637364677200418 0.8362635322799582
8
1 0 1 0 1 0 1 0
8
1 0 0 1 0 1 1 0
8
1 0 0 1 0 1 1 0
8
0.5336788132012076 0.4663211867987924 0.3489094040366201 0.6510905959633799 0.08077771501202123 0.9192222849879788 0.36387029250886377 0.6361297074911363
8
1 0 1 0 0 1 0 1
8
0 1 1 0 1 0 0 1
8
0 1 0 1 0 1 0 1
8
1 0 1 0 1 0 0 1
8
0 1 1 0 0 1 1 0
8
0 1 1 0 1 0 1 0
8
0.7746472860352724 0.2253527139647275 0.37870470592864375 0.6212952940713561 0.06730611382516387 0.9326938861748362 0.27330667646105483 0.7266933235389451
8
0 1 0 1 0 1 0 1
8
0 1 1 0 1 0 1 0
8
0 1 1 0 0 1 0 1
8
1 0 1 0 1 0 1 0
8
1 0 1 0 1 0 0 1
8
0 1 0 1 1 0 1 0
8
1 0 1 0 1 0 0 1
8
0 1 0 1 1 0 0 1
8
0 1 1 0 0 1 0 1
8
1 0 1 0 1 0 0 1
4
0 1 0 1
8
1 0 0 1 1 0 0 1
8
1 0 0 1 0 1 0 1
8
1 0 1 0 0 1 1 0
8
0 1 0 1 1 0 0 1
8
1 0 0 1 0 1 0 1
8
1 0 0 1 1 0 0 1
8
1 0 1 0 0 1 0 1
8
1 0 1 0 0 1 1 0
8
0.7537639228829215 0.24623607711707848 0.5416716218078101 0.4583283781921898 0.2969272363640065 0.7030727636359936 0.12420058288005695 0.875799417119943
8
1 0 0 1 1 0 0 1
8
0.3812571659055027 0.6187428340944974 0.20965612740533673 0.7903438725946632 0.5538599056799698 0.44614009432003027 0.35722313200509165 0.6427768679949084
8
0.3519760248775357 0.6480239751224643 0.7165236594596773 0.2834763405403227 0.5694749131057613 0.4305250868942387 0.52187308126561 0.47812691873438984
8
0 1 0 1 0 1 1 0
8
1 0 0 1 0 1 1 0
8
0 1 1 0 1 0 1 0
8
1 0 0 1 0 1 0 1
8
1 0 1 0 1 0 0 1
8
0 1 0 1 0 1 0 1
8
1 0 1 0 0 1 1 0
8
1 0 0 1 0 1 1 0
8
0.23356788997888175 0.7664321100211182 0.694545249386484 0.305454750613516 0.48334290580113265 0.5166570941988673 0.9374975929575524 0.06250240704244756
8
0.5640604729566541 0.435939527043346 0.14348308502312396 0.856516914976876 0.8619693863551887 0.1380306136448113 0.47198923855235464 0.5280107614476454
8
0.5453145889483129 0.45468541105168714 0.4607853309620062 0.5392146690379938 0.5819729917642261 0.4180270082357739 0.5561103353186423 0.4438896646813577
8
0 1 1 0 1 0 1 0
4
1 0 0 1
8
1 0 1 0 1 0 0 1
8
0 1 0 1 1 0 0 1
8
1 0 1 0 0 1 0 1
8
0 1 1 0 0 1 1 0
8
0 1 0 1 0 1 1 0
8
1 0 1 0 1 0 1 0
8
0 1 0 1 0 1 1 0
8
1 0 1 0 1 0 0 1
8
0 1 1 0 1 0 1 0
8
0.6380124406479728 0.36198755935202714 0.3550199311522758 0.6449800688477242 0.5366330835698954 0.46336691643010464 0.4632683486972938 0.5367316513027062
8
1 0 0 1 0 1 0 1
8
0 1 1 0 1 0 0 1
8
0 1 0 1 0 1 1 0
8
0 1 1 0 0 1 1 0
8
0 1 1 0 1 0 0 1
8
0 1 1 0 1 0 0 1
8
0 1 1 0 0 1 0 1
8
1 0 1 0 1 0 0 1
8
0 1 1 0 1 0 1 0
8
1 0 0 1 0 1 0 1
8
0.5860312892084851 0.4139687107915148 0.42842392517001393 0.5715760748299861 0.7967245097873188 0.20327549021268126 0.6543987062896569 0.34560129371034315
8
1 0 1 0 1 0 0 1
8
0 1 1 0 1 0 0 1
8
1 0 0 1 1 0 1 0
4
1 0 1 0
8
0 1 1 0 1 0 1 0
8
0.37035935803723996 0.62964064196276 0.7157084432649993 0.2842915567350008 0.05548631317018501 0.944513686829815 0.3858004609507519 0.6141995390492481
8
0 1 0 1 1 0 0 1
8
1 0 1 0 0 1 0 1
8
0 1 0 1 0 1 0 1
8
0 1 1 0 1 0 1 0
8
0 1 1 0 0 1 0 1
8
0 1 1 0 0 1 0 1
8
1 0 1 0 1 0 0 1
8
0 1 1 0 0 1 0 1
8
0 1 0 1 1 0 0 1
8
0 1 1 0 1 0 0 1
8
0 1 0 1 1 0 1 0
8
0.6267938734981957 0.3732061265018044 0.6381322094484663 0.36186779055153384 0.3316042185760037 0.6683957814239962 0.21625294244355184 0.7837470575564481
8
0 1 0 1 0 1 0 1
8
0.3787757790122058 0.6212242209877943 0.4959185988650947 0.5040814011349054 0.19608677680942063 0.8039132231905793 0.627302250555221 0.3726977494447789
8
1 0 1 0 0 1 0 1
8
1 0 1 0 0 1 1 0
8
0 1 0 1 0 1 1 0
8
1 0 1 0 0 1 0 1
8
0 1 0 1 0 1 0 1
8
1 0 1 0 1 0 1 0
8
0 1 0 1 0 1 1 0
8
1 0 0 1 1 0 1 0
4
0 1 1 0
4
1 0 1 0
4
0 1 0 1
4
0 1 1 0
4
0 1 0 1
4
0.33610908579406823 0.6638909142059319 0.5580323283998881 0.4419676716001118
4
0 1 1 0
4
1 0 0 1
4
0 1 0 1
4
0 1 1 0
4
0 1 0 1
4
1 0 1 0
4
0 1 1 0
4
1 0 0 1
4
0 1 1 0
4
1 0 1 0
4
1 0 0 1
4
1 0 1 0
4
1 0 0 1
4
0 1 0 1
4
0 1 0 1
4
0 1 1 0
4
1 0 1 0
4
0.3658938283112769 0.6341061716887231 0.2180752366516489 0.7819247633483511
4
1 0 0 1
2
0 1
